    1C
    1UUSER                                                              
    1UDATE              30.december.2013                                
    1UTIME              23:45:37                                        
    1UHOST                                                              
    1UPGM               CalculiX                                        
    1UDIR                                                               
    1UDBN                                                               
    2C                           261                                     1
 -1         1 0.00000E+00 0.00000E+00 0.00000E+00
 -1         2 1.00000E+00 0.00000E+00 0.00000E+00
 -1         3 1.00000E+00 1.00000E+00 0.00000E+00
 -1         4 0.00000E+00 1.00000E+00 0.00000E+00
 -1         5 0.00000E+00 0.00000E+00 8.00000E+00
 -1         6 1.00000E+00 0.00000E+00 8.00000E+00
 -1         7 1.00000E+00 1.00000E+00 8.00000E+00
 -1         8 0.00000E+00 1.00000E+00 8.00000E+00
 -1         9 2.50000E-01 0.00000E+00 0.00000E+00
 -1        10 5.00000E-01 0.00000E+00 0.00000E+00
 -1        11 7.50000E-01 0.00000E+00 0.00000E+00
 -1        12 1.00000E+00 2.50000E-01 0.00000E+00
 -1        13 1.00000E+00 5.00000E-01 0.00000E+00
 -1        14 1.00000E+00 7.50000E-01 0.00000E+00
 -1        15 7.50000E-01 1.00000E+00 0.00000E+00
 -1        16 5.00000E-01 1.00000E+00 0.00000E+00
 -1        17 2.50000E-01 1.00000E+00 0.00000E+00
 -1        18 0.00000E+00 7.50000E-01 0.00000E+00
 -1        19 0.00000E+00 5.00000E-01 0.00000E+00
 -1        20 0.00000E+00 2.50000E-01 0.00000E+00
 -1        21 2.50000E-01 0.00000E+00 8.00000E+00
 -1        22 5.00000E-01 0.00000E+00 8.00000E+00
 -1        23 7.50000E-01 0.00000E+00 8.00000E+00
 -1        24 1.00000E+00 2.50000E-01 8.00000E+00
 -1        25 1.00000E+00 5.00000E-01 8.00000E+00
 -1        26 1.00000E+00 7.50000E-01 8.00000E+00
 -1        27 7.50000E-01 1.00000E+00 8.00000E+00
 -1        28 5.00000E-01 1.00000E+00 8.00000E+00
 -1        29 2.50000E-01 1.00000E+00 8.00000E+00
 -1        30 0.00000E+00 7.50000E-01 8.00000E+00
 -1        31 0.00000E+00 5.00000E-01 8.00000E+00
 -1        32 0.00000E+00 2.50000E-01 8.00000E+00
 -1        33 1.00000E+00 0.00000E+00 5.00000E-01
 -1        34 1.00000E+00 0.00000E+00 1.00000E+00
 -1        35 1.00000E+00 0.00000E+00 1.50000E+00
 -1        36 1.00000E+00 0.00000E+00 2.00000E+00
 -1        37 1.00000E+00 0.00000E+00 2.50000E+00
 -1        38 1.00000E+00 0.00000E+00 3.00000E+00
 -1        39 1.00000E+00 0.00000E+00 3.50000E+00
 -1        40 1.00000E+00 0.00000E+00 4.00000E+00
 -1        41 1.00000E+00 0.00000E+00 4.50000E+00
 -1        42 1.00000E+00 0.00000E+00 5.00000E+00
 -1        43 1.00000E+00 0.00000E+00 5.50000E+00
 -1        44 1.00000E+00 0.00000E+00 6.00000E+00
 -1        45 1.00000E+00 0.00000E+00 6.50000E+00
 -1        46 1.00000E+00 0.00000E+00 7.00000E+00
 -1        47 1.00000E+00 0.00000E+00 7.50000E+00
 -1        48 0.00000E+00 0.00000E+00 7.50000E+00
 -1        49 0.00000E+00 0.00000E+00 7.00000E+00
 -1        50 0.00000E+00 0.00000E+00 6.50000E+00
 -1        51 0.00000E+00 0.00000E+00 6.00000E+00
 -1        52 0.00000E+00 0.00000E+00 5.50000E+00
 -1        53 0.00000E+00 0.00000E+00 5.00000E+00
 -1        54 0.00000E+00 0.00000E+00 4.50000E+00
 -1        55 0.00000E+00 0.00000E+00 4.00000E+00
 -1        56 0.00000E+00 0.00000E+00 3.50000E+00
 -1        57 0.00000E+00 0.00000E+00 3.00000E+00
 -1        58 0.00000E+00 0.00000E+00 2.50000E+00
 -1        59 0.00000E+00 0.00000E+00 2.00000E+00
 -1        60 0.00000E+00 0.00000E+00 1.50000E+00
 -1        61 0.00000E+00 0.00000E+00 1.00000E+00
 -1        62 0.00000E+00 0.00000E+00 5.00000E-01
 -1        63 1.00000E+00 1.00000E+00 5.00000E-01
 -1        64 1.00000E+00 1.00000E+00 1.00000E+00
 -1        65 1.00000E+00 1.00000E+00 1.50000E+00
 -1        66 1.00000E+00 1.00000E+00 2.00000E+00
 -1        67 1.00000E+00 1.00000E+00 2.50000E+00
 -1        68 1.00000E+00 1.00000E+00 3.00000E+00
 -1        69 1.00000E+00 1.00000E+00 3.50000E+00
 -1        70 1.00000E+00 1.00000E+00 4.00000E+00
 -1        71 1.00000E+00 1.00000E+00 4.50000E+00
 -1        72 1.00000E+00 1.00000E+00 5.00000E+00
 -1        73 1.00000E+00 1.00000E+00 5.50000E+00
 -1        74 1.00000E+00 1.00000E+00 6.00000E+00
 -1        75 1.00000E+00 1.00000E+00 6.50000E+00
 -1        76 1.00000E+00 1.00000E+00 7.00000E+00
 -1        77 1.00000E+00 1.00000E+00 7.50000E+00
 -1        78 0.00000E+00 1.00000E+00 5.00000E-01
 -1        79 0.00000E+00 1.00000E+00 1.00000E+00
 -1        80 0.00000E+00 1.00000E+00 1.50000E+00
 -1        81 0.00000E+00 1.00000E+00 2.00000E+00
 -1        82 0.00000E+00 1.00000E+00 2.50000E+00
 -1        83 0.00000E+00 1.00000E+00 3.00000E+00
 -1        84 0.00000E+00 1.00000E+00 3.50000E+00
 -1        85 0.00000E+00 1.00000E+00 4.00000E+00
 -1        86 0.00000E+00 1.00000E+00 4.50000E+00
 -1        87 0.00000E+00 1.00000E+00 5.00000E+00
 -1        88 0.00000E+00 1.00000E+00 5.50000E+00
 -1        89 0.00000E+00 1.00000E+00 6.00000E+00
 -1        90 0.00000E+00 1.00000E+00 6.50000E+00
 -1        91 0.00000E+00 1.00000E+00 7.00000E+00
 -1        92 0.00000E+00 1.00000E+00 7.50000E+00
 -1        93 5.00000E-01 2.50000E-01 0.00000E+00
 -1        94 2.50000E-01 5.00000E-01 0.00000E+00
 -1        95 5.00000E-01 5.00000E-01 0.00000E+00
 -1        96 7.50000E-01 5.00000E-01 0.00000E+00
 -1        97 5.00000E-01 7.50000E-01 0.00000E+00
 -1        98 5.00000E-01 2.50000E-01 8.00000E+00
 -1        99 2.50000E-01 5.00000E-01 8.00000E+00
 -1       100 5.00000E-01 5.00000E-01 8.00000E+00
 -1       101 7.50000E-01 5.00000E-01 8.00000E+00
 -1       102 5.00000E-01 7.50000E-01 8.00000E+00
 -1       103 5.00000E-01 0.00000E+00 5.00000E-01
 -1       104 2.50000E-01 0.00000E+00 1.00000E+00
 -1       105 5.00000E-01 0.00000E+00 1.00000E+00
 -1       106 7.50000E-01 0.00000E+00 1.00000E+00
 -1       107 5.00000E-01 0.00000E+00 1.50000E+00
 -1       108 2.50000E-01 0.00000E+00 2.00000E+00
 -1       109 5.00000E-01 0.00000E+00 2.00000E+00
 -1       110 7.50000E-01 0.00000E+00 2.00000E+00
 -1       111 5.00000E-01 0.00000E+00 2.50000E+00
 -1       112 2.50000E-01 0.00000E+00 3.00000E+00
 -1       113 5.00000E-01 0.00000E+00 3.00000E+00
 -1       114 7.50000E-01 0.00000E+00 3.00000E+00
 -1       115 5.00000E-01 0.00000E+00 3.50000E+00
 -1       116 2.50000E-01 0.00000E+00 4.00000E+00
 -1       117 5.00000E-01 0.00000E+00 4.00000E+00
 -1       118 7.50000E-01 0.00000E+00 4.00000E+00
 -1       119 5.00000E-01 0.00000E+00 4.50000E+00
 -1       120 2.50000E-01 0.00000E+00 5.00000E+00
 -1       121 5.00000E-01 0.00000E+00 5.00000E+00
 -1       122 7.50000E-01 0.00000E+00 5.00000E+00
 -1       123 5.00000E-01 0.00000E+00 5.50000E+00
 -1       124 2.50000E-01 0.00000E+00 6.00000E+00
 -1       125 5.00000E-01 0.00000E+00 6.00000E+00
 -1       126 7.50000E-01 0.00000E+00 6.00000E+00
 -1       127 5.00000E-01 0.00000E+00 6.50000E+00
 -1       128 2.50000E-01 0.00000E+00 7.00000E+00
 -1       129 5.00000E-01 0.00000E+00 7.00000E+00
 -1       130 7.50000E-01 0.00000E+00 7.00000E+00
 -1       131 5.00000E-01 0.00000E+00 7.50000E+00
 -1       132 1.00000E+00 5.00000E-01 5.00000E-01
 -1       133 1.00000E+00 2.50000E-01 1.00000E+00
 -1       134 1.00000E+00 5.00000E-01 1.00000E+00
 -1       135 1.00000E+00 7.50000E-01 1.00000E+00
 -1       136 1.00000E+00 5.00000E-01 1.50000E+00
 -1       137 1.00000E+00 2.50000E-01 2.00000E+00
 -1       138 1.00000E+00 5.00000E-01 2.00000E+00
 -1       139 1.00000E+00 7.50000E-01 2.00000E+00
 -1       140 1.00000E+00 5.00000E-01 2.50000E+00
 -1       141 1.00000E+00 2.50000E-01 3.00000E+00
 -1       142 1.00000E+00 5.00000E-01 3.00000E+00
 -1       143 1.00000E+00 7.50000E-01 3.00000E+00
 -1       144 1.00000E+00 5.00000E-01 3.50000E+00
 -1       145 1.00000E+00 2.50000E-01 4.00000E+00
 -1       146 1.00000E+00 5.00000E-01 4.00000E+00
 -1       147 1.00000E+00 7.50000E-01 4.00000E+00
 -1       148 1.00000E+00 5.00000E-01 4.50000E+00
 -1       149 1.00000E+00 2.50000E-01 5.00000E+00
 -1       150 1.00000E+00 5.00000E-01 5.00000E+00
 -1       151 1.00000E+00 7.50000E-01 5.00000E+00
 -1       152 1.00000E+00 5.00000E-01 5.50000E+00
 -1       153 1.00000E+00 2.50000E-01 6.00000E+00
 -1       154 1.00000E+00 5.00000E-01 6.00000E+00
 -1       155 1.00000E+00 7.50000E-01 6.00000E+00
 -1       156 1.00000E+00 5.00000E-01 6.50000E+00
 -1       157 1.00000E+00 2.50000E-01 7.00000E+00
 -1       158 1.00000E+00 5.00000E-01 7.00000E+00
 -1       159 1.00000E+00 7.50000E-01 7.00000E+00
 -1       160 1.00000E+00 5.00000E-01 7.50000E+00
 -1       161 5.00000E-01 1.00000E+00 5.00000E-01
 -1       162 7.50000E-01 1.00000E+00 1.00000E+00
 -1       163 5.00000E-01 1.00000E+00 1.00000E+00
 -1       164 2.50000E-01 1.00000E+00 1.00000E+00
 -1       165 5.00000E-01 1.00000E+00 1.50000E+00
 -1       166 7.50000E-01 1.00000E+00 2.00000E+00
 -1       167 5.00000E-01 1.00000E+00 2.00000E+00
 -1       168 2.50000E-01 1.00000E+00 2.00000E+00
 -1       169 5.00000E-01 1.00000E+00 2.50000E+00
 -1       170 7.50000E-01 1.00000E+00 3.00000E+00
 -1       171 5.00000E-01 1.00000E+00 3.00000E+00
 -1       172 2.50000E-01 1.00000E+00 3.00000E+00
 -1       173 5.00000E-01 1.00000E+00 3.50000E+00
 -1       174 7.50000E-01 1.00000E+00 4.00000E+00
 -1       175 5.00000E-01 1.00000E+00 4.00000E+00
 -1       176 2.50000E-01 1.00000E+00 4.00000E+00
 -1       177 5.00000E-01 1.00000E+00 4.50000E+00
 -1       178 7.50000E-01 1.00000E+00 5.00000E+00
 -1       179 5.00000E-01 1.00000E+00 5.00000E+00
 -1       180 2.50000E-01 1.00000E+00 5.00000E+00
 -1       181 5.00000E-01 1.00000E+00 5.50000E+00
 -1       182 7.50000E-01 1.00000E+00 6.00000E+00
 -1       183 5.00000E-01 1.00000E+00 6.00000E+00
 -1       184 2.50000E-01 1.00000E+00 6.00000E+00
 -1       185 5.00000E-01 1.00000E+00 6.50000E+00
 -1       186 7.50000E-01 1.00000E+00 7.00000E+00
 -1       187 5.00000E-01 1.00000E+00 7.00000E+00
 -1       188 2.50000E-01 1.00000E+00 7.00000E+00
 -1       189 5.00000E-01 1.00000E+00 7.50000E+00
 -1       190 0.00000E+00 5.00000E-01 5.00000E-01
 -1       191 0.00000E+00 7.50000E-01 1.00000E+00
 -1       192 0.00000E+00 5.00000E-01 1.00000E+00
 -1       193 0.00000E+00 2.50000E-01 1.00000E+00
 -1       194 0.00000E+00 5.00000E-01 1.50000E+00
 -1       195 0.00000E+00 7.50000E-01 2.00000E+00
 -1       196 0.00000E+00 5.00000E-01 2.00000E+00
 -1       197 0.00000E+00 2.50000E-01 2.00000E+00
 -1       198 0.00000E+00 5.00000E-01 2.50000E+00
 -1       199 0.00000E+00 7.50000E-01 3.00000E+00
 -1       200 0.00000E+00 5.00000E-01 3.00000E+00
 -1       201 0.00000E+00 2.50000E-01 3.00000E+00
 -1       202 0.00000E+00 5.00000E-01 3.50000E+00
 -1       203 0.00000E+00 7.50000E-01 4.00000E+00
 -1       204 0.00000E+00 5.00000E-01 4.00000E+00
 -1       205 0.00000E+00 2.50000E-01 4.00000E+00
 -1       206 0.00000E+00 5.00000E-01 4.50000E+00
 -1       207 0.00000E+00 7.50000E-01 5.00000E+00
 -1       208 0.00000E+00 5.00000E-01 5.00000E+00
 -1       209 0.00000E+00 2.50000E-01 5.00000E+00
 -1       210 0.00000E+00 5.00000E-01 5.50000E+00
 -1       211 0.00000E+00 7.50000E-01 6.00000E+00
 -1       212 0.00000E+00 5.00000E-01 6.00000E+00
 -1       213 0.00000E+00 2.50000E-01 6.00000E+00
 -1       214 0.00000E+00 5.00000E-01 6.50000E+00
 -1       215 0.00000E+00 7.50000E-01 7.00000E+00
 -1       216 0.00000E+00 5.00000E-01 7.00000E+00
 -1       217 0.00000E+00 2.50000E-01 7.00000E+00
 -1       218 0.00000E+00 5.00000E-01 7.50000E+00
 -1       219 5.00000E-01 5.00000E-01 5.00000E-01
 -1       220 5.00000E-01 2.50000E-01 1.00000E+00
 -1       221 2.50000E-01 5.00000E-01 1.00000E+00
 -1       222 5.00000E-01 5.00000E-01 1.00000E+00
 -1       223 7.50000E-01 5.00000E-01 1.00000E+00
 -1       224 5.00000E-01 7.50000E-01 1.00000E+00
 -1       225 5.00000E-01 5.00000E-01 1.50000E+00
 -1       226 5.00000E-01 2.50000E-01 2.00000E+00
 -1       227 2.50000E-01 5.00000E-01 2.00000E+00
 -1       228 5.00000E-01 5.00000E-01 2.00000E+00
 -1       229 7.50000E-01 5.00000E-01 2.00000E+00
 -1       230 5.00000E-01 7.50000E-01 2.00000E+00
 -1       231 5.00000E-01 5.00000E-01 2.50000E+00
 -1       232 5.00000E-01 2.50000E-01 3.00000E+00
 -1       233 2.50000E-01 5.00000E-01 3.00000E+00
 -1       234 5.00000E-01 5.00000E-01 3.00000E+00
 -1       235 7.50000E-01 5.00000E-01 3.00000E+00
 -1       236 5.00000E-01 7.50000E-01 3.00000E+00
 -1       237 5.00000E-01 5.00000E-01 3.50000E+00
 -1       238 5.00000E-01 2.50000E-01 4.00000E+00
 -1       239 2.50000E-01 5.00000E-01 4.00000E+00
 -1       240 5.00000E-01 5.00000E-01 4.00000E+00
 -1       241 7.50000E-01 5.00000E-01 4.00000E+00
 -1       242 5.00000E-01 7.50000E-01 4.00000E+00
 -1       243 5.00000E-01 5.00000E-01 4.50000E+00
 -1       244 5.00000E-01 2.50000E-01 5.00000E+00
 -1       245 2.50000E-01 5.00000E-01 5.00000E+00
 -1       246 5.00000E-01 5.00000E-01 5.00000E+00
 -1       247 7.50000E-01 5.00000E-01 5.00000E+00
 -1       248 5.00000E-01 7.50000E-01 5.00000E+00
 -1       249 5.00000E-01 5.00000E-01 5.50000E+00
 -1       250 5.00000E-01 2.50000E-01 6.00000E+00
 -1       251 2.50000E-01 5.00000E-01 6.00000E+00
 -1       252 5.00000E-01 5.00000E-01 6.00000E+00
 -1       253 7.50000E-01 5.00000E-01 6.00000E+00
 -1       254 5.00000E-01 7.50000E-01 6.00000E+00
 -1       255 5.00000E-01 5.00000E-01 6.50000E+00
 -1       256 5.00000E-01 2.50000E-01 7.00000E+00
 -1       257 2.50000E-01 5.00000E-01 7.00000E+00
 -1       258 5.00000E-01 5.00000E-01 7.00000E+00
 -1       259 7.50000E-01 5.00000E-01 7.00000E+00
 -1       260 5.00000E-01 7.50000E-01 7.00000E+00
 -1       261 5.00000E-01 5.00000E-01 7.50000E+00
 -3
    3C                            32                                     1
 -1         1    4    0EL   
 -2         1        10        95        19        61       105       222       192         9        93
 -2        94        20        62       103       219       190       104       220       221       193
 -1         2    4    0EL   
 -2        10         2        13        95       105        34       134       222        11        12
 -2        96        93       103        33       132       219       106       133       223       220
 -1         3    4    0EL   
 -2        19        95        16         4       192       222       163        79        94        97
 -2        17        18       190       219       161        78       221       224       164       191
 -1         4    4    0EL   
 -2        95        13         3        16       222       134        64       163        96        14
 -2        15        97       219       132        63       161       223       135       162       224
 -1         5    4    0EL   
 -2        61       105       222       192        59       109       228       196       104       220
 -2       221       193        60       107       225       194       108       226       227       197
 -1         6    4    0EL   
 -2       105        34       134       222       109        36       138       228       106       133
 -2       223       220       107        35       136       225       110       137       229       226
 -1         7    4    0EL   
 -2       192       222       163        79       196       228       167        81       221       224
 -2       164       191       194       225       165        80       227       230       168       195
 -1         8    4    0EL   
 -2       222       134        64       163       228       138        66       167       223       135
 -2       162       224       225       136        65       165       229       139       166       230
 -1         9    4    0EL   
 -2        59       109       228       196        57       113       234       200       108       226
 -2       227       197        58       111       231       198       112       232       233       201
 -1        10    4    0EL   
 -2       109        36       138       228       113        38       142       234       110       137
 -2       229       226       111        37       140       231       114       141       235       232
 -1        11    4    0EL   
 -2       196       228       167        81       200       234       171        83       227       230
 -2       168       195       198       231       169        82       233       236       172       199
 -1        12    4    0EL   
 -2       228       138        66       167       234       142        68       171       229       139
 -2       166       230       231       140        67       169       235       143       170       236
 -1        13    4    0EL   
 -2        57       113       234       200        55       117       240       204       112       232
 -2       233       201        56       115       237       202       116       238       239       205
 -1        14    4    0EL   
 -2       113        38       142       234       117        40       146       240       114       141
 -2       235       232       115        39       144       237       118       145       241       238
 -1        15    4    0EL   
 -2       200       234       171        83       204       240       175        85       233       236
 -2       172       199       202       237       173        84       239       242       176       203
 -1        16    4    0EL   
 -2       234       142        68       171       240       146        70       175       235       143
 -2       170       236       237       144        69       173       241       147       174       242
 -1        17    4    0EL   
 -2        55       117       240       204        53       121       246       208       116       238
 -2       239       205        54       119       243       206       120       244       245       209
 -1        18    4    0EL   
 -2       117        40       146       240       121        42       150       246       118       145
 -2       241       238       119        41       148       243       122       149       247       244
 -1        19    4    0EL   
 -2       204       240       175        85       208       246       179        87       239       242
 -2       176       203       206       243       177        86       245       248       180       207
 -1        20    4    0EL   
 -2       240       146        70       175       246       150        72       179       241       147
 -2       174       242       243       148        71       177       247       151       178       248
 -1        21    4    0EL   
 -2        53       121       246       208        51       125       252       212       120       244
 -2       245       209        52       123       249       210       124       250       251       213
 -1        22    4    0EL   
 -2       121        42       150       246       125        44       154       252       122       149
 -2       247       244       123        43       152       249       126       153       253       250
 -1        23    4    0EL   
 -2       208       246       179        87       212       252       183        89       245       248
 -2       180       207       210       249       181        88       251       254       184       211
 -1        24    4    0EL   
 -2       246       150        72       179       252       154        74       183       247       151
 -2       178       248       249       152        73       181       253       155       182       254
 -1        25    4    0EL   
 -2        51       125       252       212        49       129       258       216       124       250
 -2       251       213        50       127       255       214       128       256       257       217
 -1        26    4    0EL   
 -2       125        44       154       252       129        46       158       258       126       153
 -2       253       250       127        45       156       255       130       157       259       256
 -1        27    4    0EL   
 -2       212       252       183        89       216       258       187        91       251       254
 -2       184       211       214       255       185        90       257       260       188       215
 -1        28    4    0EL   
 -2       252       154        74       183       258       158        76       187       253       155
 -2       182       254       255       156        75       185       259       159       186       260
 -1        29    4    0EL   
 -2        49       129       258       216         5        22       100        31       128       256
 -2       257       217        48       131       261       218        21        98        99        32
 -1        30    4    0EL   
 -2       129        46       158       258        22         6        25       100       130       157
 -2       259       256       131        47       160       261        23        24       101        98
 -1        31    4    0EL   
 -2       216       258       187        91        31       100        28         8       257       260
 -2       188       215       218       261       189        92        99       102        29        30
 -1        32    4    0EL   
 -2       258       158        76       187       100        25         7        28       259       159
 -2       186       260       261       160        77       189       101        26        27       102
 -3
    1PSTEP                         1           1           1          
  100CL  101 1.000000000         261                     0    1           1
 -4  DISP        4    1
 -5  D1          1    2    1    0
 -5  D2          1    2    2    0
 -5  D3          1    2    3    0
 -5  ALL         1    2    0    0    1ALL
 -1         1 0.00000E+00 0.00000E+00 0.00000E+00
 -1         2 0.00000E+00 0.00000E+00 0.00000E+00
 -1         3 0.00000E+00 0.00000E+00 0.00000E+00
 -1         4 0.00000E+00 0.00000E+00 0.00000E+00
 -1         5-4.08740E-02 8.76882E+01 8.18055E+00
 -1         6 4.08740E-02 8.76882E+01 8.18055E+00
 -1         7-4.08740E-02 8.76882E+01-8.18055E+00
 -1         8 4.08740E-02 8.76882E+01-8.18055E+00
 -1         9 0.00000E+00 0.00000E+00 0.00000E+00
 -1        10 0.00000E+00 0.00000E+00 0.00000E+00
 -1        11 0.00000E+00 0.00000E+00 0.00000E+00
 -1        12 0.00000E+00 0.00000E+00 0.00000E+00
 -1        13 0.00000E+00 0.00000E+00 0.00000E+00
 -1        14 0.00000E+00 0.00000E+00 0.00000E+00
 -1        15 0.00000E+00 0.00000E+00 0.00000E+00
 -1        16 0.00000E+00 0.00000E+00 0.00000E+00
 -1        17 0.00000E+00 0.00000E+00 0.00000E+00
 -1        18 0.00000E+00 0.00000E+00 0.00000E+00
 -1        19 0.00000E+00 0.00000E+00 0.00000E+00
 -1        20 0.00000E+00 0.00000E+00 0.00000E+00
 -1        21-1.86749E-02 8.76020E+01 8.17275E+00
 -1        22 2.48988E-11 8.75946E+01 8.15563E+00
 -1        23 1.86749E-02 8.76020E+01 8.17275E+00
 -1        24 1.05820E-04 8.76211E+01 4.06352E+00
 -1        25 2.80593E-11 8.75762E+01-2.34390E-12
 -1        26-1.05820E-04 8.76211E+01-4.06352E+00
 -1        27-1.86749E-02 8.76020E+01-8.17275E+00
 -1        28 3.13382E-11 8.75946E+01-8.15563E+00
 -1        29 1.86749E-02 8.76020E+01-8.17275E+00
 -1        30 1.05820E-04 8.76211E+01-4.06352E+00
 -1        31 2.81243E-11 8.75762E+01 2.55969E-12
 -1        32-1.05820E-04 8.76211E+01 4.06352E+00
 -1        33-3.08705E-01 5.37976E-01 9.25895E-01
 -1        34-2.25039E-01 1.91981E+00 1.85455E+00
 -1        35-2.54181E-01 4.32007E+00 2.72644E+00
 -1        36-2.24346E-01 7.48314E+00 3.53248E+00
 -1        37-2.13262E-01 1.14690E+01 4.26708E+00
 -1        38-1.90925E-01 1.61276E+01 4.94310E+00
 -1        39-1.73893E-01 2.14480E+01 5.55320E+00
 -1        40-1.53764E-01 2.73364E+01 6.10075E+00
 -1        41-1.35230E-01 3.37436E+01 6.58178E+00
 -1        42-1.16437E-01 4.05999E+01 7.00011E+00
 -1        43-9.53461E-02 4.78405E+01 7.35345E+00
 -1        44-7.64218E-02 5.54125E+01 7.64461E+00
 -1        45-5.95948E-02 6.32162E+01 7.86643E+00
 -1        46-4.88620E-02 7.12407E+01 8.02733E+00
 -1        47-3.80196E-03 7.93821E+01 8.12647E+00
 -1        48 3.80196E-03 7.93821E+01 8.12647E+00
 -1        49 4.88620E-02 7.12407E+01 8.02733E+00
 -1        50 5.95948E-02 6.32162E+01 7.86643E+00
 -1        51 7.64218E-02 5.54125E+01 7.64461E+00
 -1        52 9.53461E-02 4.78405E+01 7.35345E+00
 -1        53 1.16437E-01 4.05999E+01 7.00011E+00
 -1        54 1.35230E-01 3.37436E+01 6.58178E+00
 -1        55 1.53764E-01 2.73364E+01 6.10075E+00
 -1        56 1.73893E-01 2.14480E+01 5.55320E+00
 -1        57 1.90925E-01 1.61276E+01 4.94310E+00
 -1        58 2.13262E-01 1.14690E+01 4.26708E+00
 -1        59 2.24346E-01 7.48314E+00 3.53248E+00
 -1        60 2.54181E-01 4.32007E+00 2.72644E+00
 -1        61 2.25039E-01 1.91981E+00 1.85455E+00
 -1        62 3.08705E-01 5.37976E-01 9.25895E-01
 -1        63 3.08705E-01 5.37976E-01-9.25895E-01
 -1        64 2.25039E-01 1.91981E+00-1.85455E+00
 -1        65 2.54181E-01 4.32007E+00-2.72644E+00
 -1        66 2.24346E-01 7.48314E+00-3.53248E+00
 -1        67 2.13262E-01 1.14690E+01-4.26708E+00
 -1        68 1.90925E-01 1.61276E+01-4.94310E+00
 -1        69 1.73893E-01 2.14480E+01-5.55320E+00
 -1        70 1.53764E-01 2.73364E+01-6.10075E+00
 -1        71 1.35230E-01 3.37436E+01-6.58178E+00
 -1        72 1.16437E-01 4.05999E+01-7.00011E+00
 -1        73 9.53461E-02 4.78405E+01-7.35345E+00
 -1        74 7.64218E-02 5.54125E+01-7.64461E+00
 -1        75 5.95948E-02 6.32162E+01-7.86643E+00
 -1        76 4.88620E-02 7.12407E+01-8.02733E+00
 -1        77 3.80196E-03 7.93821E+01-8.12647E+00
 -1        78-3.08705E-01 5.37976E-01-9.25895E-01
 -1        79-2.25039E-01 1.91981E+00-1.85455E+00
 -1        80-2.54181E-01 4.32007E+00-2.72644E+00
 -1        81-2.24346E-01 7.48314E+00-3.53248E+00
 -1        82-2.13262E-01 1.14690E+01-4.26708E+00
 -1        83-1.90925E-01 1.61276E+01-4.94310E+00
 -1        84-1.73893E-01 2.14480E+01-5.55320E+00
 -1        85-1.53764E-01 2.73364E+01-6.10075E+00
 -1        86-1.35230E-01 3.37436E+01-6.58178E+00
 -1        87-1.16437E-01 4.05999E+01-7.00011E+00
 -1        88-9.53461E-02 4.78405E+01-7.35345E+00
 -1        89-7.64218E-02 5.54125E+01-7.64461E+00
 -1        90-5.95948E-02 6.32162E+01-7.86643E+00
 -1        91-4.88620E-02 7.12407E+01-8.02733E+00
 -1        92-3.80196E-03 7.93821E+01-8.12647E+00
 -1        93 0.00000E+00 0.00000E+00 0.00000E+00
 -1        94 0.00000E+00 0.00000E+00 0.00000E+00
 -1        95 0.00000E+00 0.00000E+00 0.00000E+00
 -1        96 0.00000E+00 0.00000E+00 0.00000E+00
 -1        97 0.00000E+00 0.00000E+00 0.00000E+00
 -1        98 2.65089E-11 8.75739E+01 4.06829E+00
 -1        99 2.80725E-11 8.75712E+01 1.29752E-12
 -1       100 2.80223E-11 8.75561E+01 8.28691E-14
 -1       101 2.80203E-11 8.75712E+01-1.13204E-12
 -1       102 2.97135E-11 8.75739E+01-4.06829E+00
 -1       103-9.53577E-14 6.70338E-01 8.99238E-01
 -1       104 1.11408E-01 2.02860E+00 1.86649E+00
 -1       105 1.82354E-13 2.05311E+00 1.87998E+00
 -1       106-1.11408E-01 2.02860E+00 1.86649E+00
 -1       107 7.07101E-13 4.44086E+00 2.72715E+00
 -1       108 1.12188E-01 7.57016E+00 3.53905E+00
 -1       109 1.52377E-12 7.60419E+00 3.54010E+00
 -1       110-1.12188E-01 7.57016E+00 3.53905E+00
 -1       111 2.57659E-12 1.15730E+01 4.27060E+00
 -1       112 9.54027E-02 1.62018E+01 4.94775E+00
 -1       113 3.87739E-12 1.62264E+01 4.94789E+00
 -1       114-9.54027E-02 1.62018E+01 4.94775E+00
 -1       115 5.34172E-12 2.15342E+01 5.55732E+00
 -1       116 7.68996E-02 2.73940E+01 6.10519E+00
 -1       117 7.02097E-12 2.74137E+01 6.10481E+00
 -1       118-7.68996E-02 2.73940E+01 6.10519E+00
 -1       119 8.76776E-12 3.38115E+01 6.58596E+00
 -1       120 5.81720E-02 4.06434E+01 7.00465E+00
 -1       121 1.07303E-11 4.06565E+01 7.00420E+00
 -1       122-5.81720E-02 4.06434E+01 7.00465E+00
 -1       123 1.28391E-11 4.78894E+01 7.35759E+00
 -1       124 3.83884E-02 5.54350E+01 7.64847E+00
 -1       125 1.52394E-11 5.54437E+01 7.64792E+00
 -1       126-3.83884E-02 5.54350E+01 7.64847E+00
 -1       127 1.76457E-11 6.32514E+01 7.87085E+00
 -1       128 2.36810E-02 7.12602E+01 8.03283E+00
 -1       129 2.01558E-11 7.12500E+01 8.03292E+00
 -1       130-2.36810E-02 7.12602E+01 8.03283E+00
 -1       131 2.23514E-11 7.93920E+01 8.12847E+00
 -1       132 2.26648E-13 3.48114E-01-2.94321E-13
 -1       133-1.13554E-01 1.84335E+00 9.19045E-01
 -1       134 6.90184E-13 1.85495E+00-6.13343E-13
 -1       135 1.13554E-01 1.84335E+00-9.19045E-01
 -1       136 1.47765E-12 4.17222E+00-8.73759E-13
 -1       137-1.11920E-01 7.41500E+00 1.75486E+00
 -1       138 2.51486E-12 7.39924E+00-1.13010E-12
 -1       139 1.11920E-01 7.41500E+00-1.75486E+00
 -1       140 3.78902E-12 1.13542E+01-1.35264E-12
 -1       141-9.55209E-02 1.60604E+01 2.46163E+00
 -1       142 5.28011E-12 1.60428E+01-1.55637E-12
 -1       143 9.55209E-02 1.60604E+01-2.46163E+00
 -1       144 6.98802E-12 2.13582E+01-1.75882E-12
 -1       145-7.69371E-02 2.72802E+01 3.03987E+00
 -1       146 8.88860E-12 2.72623E+01-1.94395E-12
 -1       147 7.69371E-02 2.72802E+01-3.03987E+00
 -1       148 1.09342E-11 3.36761E+01-2.11238E-12
 -1       149-5.79149E-02 4.05559E+01 3.49000E+00
 -1       150 1.31732E-11 4.05405E+01-2.29843E-12
 -1       151 5.79149E-02 4.05559E+01-3.49000E+00
 -1       152 1.55795E-11 4.77939E+01-2.41816E-12
 -1       153-3.94940E-02 5.53767E+01 3.81109E+00
 -1       154 1.82081E-11 5.53615E+01-2.47224E-12
 -1       155 3.94940E-02 5.53767E+01-3.81109E+00
 -1       156 2.06553E-11 6.31973E+01-2.50461E-12
 -1       157-1.94960E-02 7.12214E+01 4.00679E+00
 -1       158 2.31506E-11 7.12064E+01-2.44309E-12
 -1       159 1.94960E-02 7.12214E+01-4.00679E+00
 -1       160 2.56219E-11 7.93786E+01-2.37332E-12
 -1       161 3.39312E-13 6.70338E-01-8.99238E-01
 -1       162 1.11408E-01 2.02860E+00-1.86649E+00
 -1       163 1.07622E-12 2.05311E+00-1.87998E+00
 -1       164-1.11408E-01 2.02860E+00-1.86649E+00
 -1       165 2.07946E-12 4.44086E+00-2.72715E+00
 -1       166 1.12188E-01 7.57016E+00-3.53905E+00
 -1       167 3.37130E-12 7.60419E+00-3.54010E+00
 -1       168-1.12188E-01 7.57016E+00-3.53905E+00
 -1       169 4.85873E-12 1.15730E+01-4.27060E+00
 -1       170 9.54027E-02 1.62018E+01-4.94775E+00
 -1       171 6.58817E-12 1.62264E+01-4.94789E+00
 -1       172-9.54027E-02 1.62018E+01-4.94775E+00
 -1       173 8.50103E-12 2.15342E+01-5.55732E+00
 -1       174 7.68996E-02 2.73940E+01-6.10519E+00
 -1       175 1.06539E-11 2.74137E+01-6.10481E+00
 -1       176-7.68996E-02 2.73940E+01-6.10519E+00
 -1       177 1.29867E-11 3.38115E+01-6.58596E+00
 -1       178 5.81720E-02 4.06434E+01-7.00465E+00
 -1       179 1.55673E-11 4.06565E+01-7.00420E+00
 -1       180-5.81720E-02 4.06434E+01-7.00465E+00
 -1       181 1.82398E-11 4.78894E+01-7.35759E+00
 -1       182 3.83884E-02 5.54350E+01-7.64847E+00
 -1       183 2.10036E-11 5.54437E+01-7.64792E+00
 -1       184-3.83884E-02 5.54350E+01-7.64847E+00
 -1       185 2.36471E-11 6.32514E+01-7.87085E+00
 -1       186 2.36810E-02 7.12602E+01-8.03283E+00
 -1       187 2.62865E-11 7.12500E+01-8.03292E+00
 -1       188-2.36810E-02 7.12602E+01-8.03283E+00
 -1       189 2.88363E-11 7.93920E+01-8.12847E+00
 -1       190 2.29652E-13 3.48114E-01 3.04817E-13
 -1       191-1.13554E-01 1.84335E+00-9.19045E-01
 -1       192 6.93570E-13 1.85495E+00 6.31232E-13
 -1       193 1.13554E-01 1.84335E+00 9.19045E-01
 -1       194 1.48092E-12 4.17222E+00 9.11091E-13
 -1       195-1.11920E-01 7.41500E+00-1.75486E+00
 -1       196 2.50891E-12 7.39924E+00 1.16679E-12
 -1       197 1.11920E-01 7.41500E+00 1.75486E+00
 -1       198 3.79463E-12 1.13542E+01 1.39829E-12
 -1       199-9.55209E-02 1.60604E+01-2.46163E+00
 -1       200 5.30731E-12 1.60428E+01 1.61342E-12
 -1       201 9.55209E-02 1.60604E+01 2.46163E+00
 -1       202 6.98070E-12 2.13582E+01 1.81415E-12
 -1       203-7.69371E-02 2.72802E+01-3.03987E+00
 -1       204 8.86635E-12 2.72623E+01 2.00082E-12
 -1       205 7.69371E-02 2.72802E+01 3.03987E+00
 -1       206 1.09317E-11 3.36761E+01 2.14622E-12
 -1       207-5.79149E-02 4.05559E+01-3.49000E+00
 -1       208 1.31754E-11 4.05405E+01 2.34953E-12
 -1       209 5.79149E-02 4.05559E+01 3.49000E+00
 -1       210 1.55698E-11 4.77939E+01 2.46864E-12
 -1       211-3.94940E-02 5.53767E+01-3.81109E+00
 -1       212 1.81562E-11 5.53615E+01 2.52776E-12
 -1       213 3.94940E-02 5.53767E+01 3.81109E+00
 -1       214 2.06217E-11 6.31973E+01 2.55901E-12
 -1       215-1.94960E-02 7.12214E+01-4.00679E+00
 -1       216 2.31175E-11 7.12064E+01 2.53211E-12
 -1       217 1.94960E-02 7.12214E+01 4.00679E+00
 -1       218 2.56342E-11 7.93786E+01 2.52504E-12
 -1       219 1.66120E-13 4.79731E-01 3.58963E-15
 -1       220 4.38573E-13 1.97016E+00 9.29890E-01
 -1       221 6.67272E-13 1.95961E+00 3.17110E-13
 -1       222 6.70686E-13 1.97793E+00 1.23478E-14
 -1       223 6.65611E-13 1.95961E+00-2.97478E-13
 -1       224 8.85791E-13 1.97016E+00-9.29890E-01
 -1       225 1.43358E-12 4.29742E+00 1.57808E-14
 -1       226 2.01281E-12 7.53197E+00 1.76126E+00
 -1       227 2.48496E-12 7.48164E+00 5.90970E-13
 -1       228 2.47921E-12 7.51153E+00 2.20283E-14
 -1       229 2.49006E-12 7.48164E+00-5.49782E-13
 -1       230 2.93766E-12 7.53197E+00-1.76126E+00
 -1       231 3.76218E-12 1.14613E+01 2.25098E-14
 -1       232 4.58480E-12 1.61571E+01 2.46597E+00
 -1       233 5.27689E-12 1.61150E+01 8.22467E-13
 -1       234 5.26890E-12 1.61377E+01 3.44169E-14
 -1       235 5.26800E-12 1.61150E+01-7.58467E-13
 -1       236 5.92683E-12 1.61571E+01-2.46597E+00
 -1       237 6.95520E-12 2.14454E+01 3.65611E-14
 -1       238 7.92626E-12 2.73574E+01 3.04402E+00
 -1       239 8.85025E-12 2.73199E+01 1.01097E-12
 -1       240 8.84491E-12 2.73393E+01 2.78111E-14
 -1       241 8.85575E-12 2.73199E+01-9.62341E-13
 -1       242 9.77035E-12 2.73574E+01-3.04402E+00
 -1       243 1.09193E-11 3.37434E+01 5.77316E-15
 -1       244 1.19572E-11 4.06135E+01 3.49403E+00
 -1       245 1.31430E-11 4.05845E+01 1.18456E-12
 -1       246 1.31258E-11 4.05997E+01 2.57572E-14
 -1       247 1.31619E-11 4.05845E+01-1.12962E-12
 -1       248 1.43406E-11 4.06135E+01-3.49403E+00
 -1       249 1.55835E-11 4.78408E+01 2.59127E-14
 -1       250 1.66933E-11 5.54136E+01 3.81540E+00
 -1       251 1.81508E-11 5.53921E+01 1.26099E-12
 -1       252 1.81352E-11 5.54028E+01 1.25551E-15
 -1       253 1.81641E-11 5.53921E+01-1.22092E-12
 -1       254 1.95767E-11 5.54136E+01-3.81540E+00
 -1       255 2.06467E-11 6.32250E+01 1.28313E-14
 -1       256 2.16076E-11 7.12357E+01 4.00911E+00
 -1       257 2.31194E-11 7.12220E+01 1.29052E-12
 -1       258 2.31349E-11 7.12307E+01 5.39950E-14
 -1       259 2.31521E-11 7.12220E+01-1.20348E-12
 -1       260 2.46931E-11 7.12357E+01-4.00911E+00
 -1       261 2.56538E-11 7.93795E+01 8.17124E-14
 -3
    1PSTEP                         2           1           1          
  100CL  101 1.000000000         261                     0    1           1
 -4  STRESS      6    1
 -5  SXX         1    4    1    1
 -5  SYY         1    4    2    2
 -5  SZZ         1    4    3    3
 -5  SXY         1    4    1    2
 -5  SYZ         1    4    2    3
 -5  SZX         1    4    3    1
 -1         1 1.23911E+11 1.32258E+11 4.63878E+11-1.40508E+10 1.87913E+10 7.73137E+10
 -1         2 1.23911E+11 1.32258E+11 4.63878E+11 1.40508E+10 1.87913E+10-7.73137E+10
 -1         3-1.23911E+11-1.32258E+11-4.63878E+11 1.40508E+10 1.87913E+10 7.73137E+10
 -1         4-1.23911E+11-1.32258E+11-4.63878E+11-1.40508E+10 1.87913E+10-7.73137E+10
 -1         5 6.25891E+09-3.08072E+10 3.37567E+09-1.43389E+10 9.96376E+09-3.58982E+09
 -1         6 6.25891E+09-3.08072E+10 3.37567E+09 1.43389E+10 9.96376E+09 3.58982E+09
 -1         7-6.25891E+09 3.08072E+10-3.37567E+09 1.43389E+10 9.96376E+09-3.58982E+09
 -1         8-6.25891E+09 3.08072E+10-3.37567E+09-1.43389E+10 9.96376E+09 3.58982E+09
 -1         9 1.16191E+11 1.25014E+11 4.45391E+11-3.48702E+09 3.68738E+10 3.65068E+10
 -1        10 1.08472E+11 1.17771E+11 4.26905E+11-3.31640E-03 5.49563E+10-4.58260E-02
 -1        11 1.16191E+11 1.25014E+11 4.45391E+11 3.48702E+09 3.68738E+10-3.65068E+10
 -1        12 4.89076E+10 3.61274E+10 2.18445E+11 1.38131E+10-9.23102E+09-3.86848E+10
 -1        13-3.91312E-02-3.67699E-02-1.40924E-01 1.35753E+10-3.72534E+10 1.91910E-02
 -1        14-4.89076E+10-3.61274E+10-2.18445E+11 1.38131E+10-9.23102E+09 3.86848E+10
 -1        15-1.16191E+11-1.25014E+11-4.45391E+11 3.48702E+09 3.68738E+10 3.65068E+10
 -1        16-1.08472E+11-1.17771E+11-4.26905E+11 5.60713E-03 5.49563E+10 2.22821E-02
 -1        17-1.16191E+11-1.25014E+11-4.45391E+11-3.48702E+09 3.68738E+10-3.65068E+10
 -1        18-4.89076E+10-3.61274E+10-2.18445E+11-1.38131E+10-9.23102E+09-3.86848E+10
 -1        19 4.01211E-02 3.64227E-02 1.45844E-01-1.35753E+10-3.72534E+10 1.91393E-02
 -1        20 4.89076E+10 3.61274E+10 2.18445E+11-1.38131E+10-9.23102E+09 3.86848E+10
 -1        21 7.58808E+09-1.48362E+10 1.70281E+09 1.20276E+09 4.68028E+09-3.69196E+09
 -1        22 8.91725E+09 1.13483E+09 2.99477E+07-3.01075E-02-6.03205E+08 3.19481E-04
 -1        23 7.58808E+09-1.48362E+10 1.70281E+09-1.20276E+09 4.68028E+09 3.69196E+09
 -1        24-4.99583E+08-1.55027E+10-8.22250E+08 1.00404E+10 1.43715E+10 1.87052E+08
 -1        25-8.03947E-03-4.52223E-02-1.04995E-02 5.74200E+09 1.87792E+10-7.56407E-03
 -1        26 4.99583E+08 1.55027E+10 8.22250E+08 1.00404E+10 1.43715E+10-1.87052E+08
 -1        27-7.58808E+09 1.48362E+10-1.70281E+09-1.20276E+09 4.68028E+09-3.69196E+09
 -1        28-8.91725E+09-1.13483E+09-2.99477E+07-2.13652E-02-6.03205E+08 1.67124E-02
 -1        29-7.58808E+09 1.48362E+10-1.70281E+09 1.20276E+09 4.68028E+09 3.69196E+09
 -1        30 4.99583E+08 1.55027E+10 8.22250E+08-1.00404E+10 1.43715E+10 1.87052E+08
 -1        31-3.54705E-02-4.79502E-02-1.10254E-02-5.74200E+09 1.87792E+10-5.26643E-03
 -1        32-4.99583E+08-1.55027E+10-8.22250E+08-1.00404E+10 1.43715E+10-1.87052E+08
 -1        33 3.03978E+10 3.71096E+10 4.08437E+11 7.52575E+09 2.70151E+09-1.56339E+10
 -1        34-2.75924E+10-3.14262E+10 3.67001E+11-4.09320E+09 2.24662E+09 1.74410E+10
 -1        35-7.68540E+07-5.48296E+09 3.50745E+11-2.81483E+09 4.37056E+09-1.58325E+09
 -1        36-1.20367E+09 2.79627E+09 3.23334E+11 2.24861E+09-5.36236E+08 2.92852E+09
 -1        37 1.36955E+09 2.89683E+09 2.97636E+11 5.12195E+08 3.31323E+09 1.06737E+08
 -1        38-1.25955E+09-2.55954E+09 2.69387E+11-3.49845E+08 1.80496E+09 1.22216E+09
 -1        39-7.72599E+07-2.94497E+08 2.42930E+11-1.73639E+08 3.09677E+09 5.89347E+08
 -1        40 3.97049E+07 7.70010E+07 2.16055E+11 2.02756E+08 2.00768E+09 8.15004E+08
 -1        41 1.73383E+07 2.61673E+08 1.89019E+11-3.09517E+07 2.91265E+09 5.63855E+08
 -1        42-2.84607E+07 4.05913E+08 1.62041E+11-3.11891E+08 2.34887E+09 7.70607E+08
 -1        43 6.73679E+07-6.59536E+08 1.34962E+11 3.37165E+08 2.85772E+09 7.21977E+08
 -1        44 4.79273E+08-8.54079E+08 1.07716E+11 6.29644E+08 9.77129E+08 9.19121E+08
 -1        45-6.77345E+08 1.26946E+09 8.12243E+10-9.01645E+08 4.09525E+09 1.88497E+08
 -1        46-1.55077E+09 7.50458E+09 5.38140E+10-3.63930E+09 2.39164E+09 4.91826E+08
 -1        47 2.94830E+09-8.43125E+09 2.80220E+10 4.42756E+09 2.27050E+09 2.77307E+09
 -1        48 2.94830E+09-8.43125E+09 2.80220E+10-4.42756E+09 2.27050E+09-2.77307E+09
 -1        49-1.55077E+09 7.50458E+09 5.38140E+10 3.63930E+09 2.39164E+09-4.91826E+08
 -1        50-6.77345E+08 1.26946E+09 8.12243E+10 9.01645E+08 4.09525E+09-1.88497E+08
 -1        51 4.79273E+08-8.54079E+08 1.07716E+11-6.29644E+08 9.77129E+08-9.19121E+08
 -1        52 6.73679E+07-6.59536E+08 1.34962E+11-3.37165E+08 2.85772E+09-7.21977E+08
 -1        53-2.84607E+07 4.05913E+08 1.62041E+11 3.11891E+08 2.34887E+09-7.70607E+08
 -1        54 1.73383E+07 2.61673E+08 1.89019E+11 3.09517E+07 2.91265E+09-5.63855E+08
 -1        55 3.97049E+07 7.70010E+07 2.16055E+11-2.02756E+08 2.00768E+09-8.15004E+08
 -1        56-7.72599E+07-2.94497E+08 2.42930E+11 1.73639E+08 3.09677E+09-5.89347E+08
 -1        57-1.25955E+09-2.55954E+09 2.69387E+11 3.49845E+08 1.80496E+09-1.22216E+09
 -1        58 1.36955E+09 2.89683E+09 2.97636E+11-5.12195E+08 3.31323E+09-1.06737E+08
 -1        59-1.20367E+09 2.79627E+09 3.23334E+11-2.24861E+09-5.36236E+08-2.92852E+09
 -1        60-7.68540E+07-5.48296E+09 3.50745E+11 2.81483E+09 4.37056E+09 1.58325E+09
 -1        61-2.75924E+10-3.14262E+10 3.67001E+11 4.09320E+09 2.24662E+09-1.74410E+10
 -1        62 3.03978E+10 3.71096E+10 4.08437E+11-7.52575E+09 2.70151E+09 1.56339E+10
 -1        63-3.03978E+10-3.71096E+10-4.08437E+11 7.52575E+09 2.70151E+09 1.56339E+10
 -1        64 2.75924E+10 3.14262E+10-3.67001E+11-4.09320E+09 2.24662E+09-1.74410E+10
 -1        65 7.68540E+07 5.48296E+09-3.50745E+11-2.81483E+09 4.37056E+09 1.58325E+09
 -1        66 1.20367E+09-2.79627E+09-3.23334E+11 2.24861E+09-5.36236E+08-2.92852E+09
 -1        67-1.36955E+09-2.89683E+09-2.97636E+11 5.12195E+08 3.31323E+09-1.06737E+08
 -1        68 1.25955E+09 2.55954E+09-2.69387E+11-3.49845E+08 1.80496E+09-1.22216E+09
 -1        69 7.72599E+07 2.94497E+08-2.42930E+11-1.73639E+08 3.09677E+09-5.89347E+08
 -1        70-3.97049E+07-7.70010E+07-2.16055E+11 2.02756E+08 2.00768E+09-8.15004E+08
 -1        71-1.73383E+07-2.61673E+08-1.89019E+11-3.09517E+07 2.91265E+09-5.63855E+08
 -1        72 2.84607E+07-4.05913E+08-1.62041E+11-3.11891E+08 2.34887E+09-7.70607E+08
 -1        73-6.73679E+07 6.59536E+08-1.34962E+11 3.37165E+08 2.85772E+09-7.21977E+08
 -1        74-4.79273E+08 8.54079E+08-1.07716E+11 6.29644E+08 9.77129E+08-9.19121E+08
 -1        75 6.77345E+08-1.26946E+09-8.12243E+10-9.01645E+08 4.09525E+09-1.88497E+08
 -1        76 1.55077E+09-7.50458E+09-5.38140E+10-3.63930E+09 2.39164E+09-4.91826E+08
 -1        77-2.94830E+09 8.43125E+09-2.80220E+10 4.42756E+09 2.27050E+09-2.77307E+09
 -1        78-3.03978E+10-3.71096E+10-4.08437E+11-7.52575E+09 2.70151E+09-1.56339E+10
 -1        79 2.75924E+10 3.14262E+10-3.67001E+11 4.09320E+09 2.24662E+09 1.74410E+10
 -1        80 7.68540E+07 5.48296E+09-3.50745E+11 2.81483E+09 4.37056E+09-1.58325E+09
 -1        81 1.20367E+09-2.79627E+09-3.23334E+11-2.24861E+09-5.36236E+08 2.92852E+09
 -1        82-1.36955E+09-2.89683E+09-2.97636E+11-5.12195E+08 3.31323E+09 1.06737E+08
 -1        83 1.25955E+09 2.55954E+09-2.69387E+11 3.49845E+08 1.80496E+09 1.22216E+09
 -1        84 7.72599E+07 2.94497E+08-2.42930E+11 1.73639E+08 3.09677E+09 5.89347E+08
 -1        85-3.97049E+07-7.70010E+07-2.16055E+11-2.02756E+08 2.00768E+09 8.15004E+08
 -1        86-1.73383E+07-2.61673E+08-1.89019E+11 3.09517E+07 2.91265E+09 5.63855E+08
 -1        87 2.84607E+07-4.05913E+08-1.62041E+11 3.11891E+08 2.34887E+09 7.70607E+08
 -1        88-6.73679E+07 6.59536E+08-1.34962E+11-3.37165E+08 2.85772E+09 7.21977E+08
 -1        89-4.79273E+08 8.54079E+08-1.07716E+11-6.29644E+08 9.77129E+08 9.19121E+08
 -1        90 6.77345E+08-1.26946E+09-8.12243E+10 9.01645E+08 4.09525E+09 1.88497E+08
 -1        91 1.55077E+09-7.50458E+09-5.38140E+10 3.63930E+09 2.39164E+09 4.91826E+08
 -1        92-2.94830E+09 8.43125E+09-2.80220E+10-4.42756E+09 2.27050E+09 2.77307E+09
 -1        93 4.14693E+10 2.96400E+10 2.00138E+11-3.49522E-04 2.72303E+10-2.26350E-02
 -1        94 1.03569E-02 1.44424E-02 6.87008E-02-3.01158E+09-1.88745E+10 9.71951E-03
 -1        95 3.84331E-04 1.17493E-03 7.09534E-04 1.07288E-04-4.95685E+08 6.13421E-04
 -1        96-9.47952E-03-1.34392E-02-6.55327E-02 3.01158E+09-1.88745E+10 1.00591E-02
 -1        97-4.14693E+10-2.96400E+10-2.00138E+11 1.60217E-03 2.72303E+10 1.14768E-02
 -1        98 1.48955E+09 1.05487E+09-8.81810E+08-3.10183E-02 3.62778E+09-6.01375E-03
 -1        99-3.54271E-02-4.48487E-02-1.83055E-02-5.78852E+09 1.33190E+10-3.38030E-03
 -1       100-4.81224E-02-1.56305E-02-1.92210E-02-1.59090E-02 7.85877E+09-1.26010E-02
 -1       101-3.44505E-02-1.73680E-02-1.16780E-02 5.78852E+09 1.33190E+10-1.56362E-02
 -1       102-1.48955E+09-1.05487E+09 8.81810E+08-1.06273E-02 3.62778E+09 1.92875E-03
 -1       103 3.46575E+10 3.83544E+10 4.15168E+11-2.49362E-03 1.49759E+10-4.58370E-02
 -1       104-2.30977E+10-2.99087E+10 3.74243E+11 7.85935E+08-2.30270E+09-8.00144E+09
 -1       105-1.86031E+10-2.83912E+10 3.81484E+11-9.67979E-05-6.85202E+09-5.32289E-02
 -1       106-2.30977E+10-2.99087E+10 3.74243E+11-7.85935E+08-2.30270E+09 8.00144E+09
 -1       107 4.59342E+07-7.52071E+09 3.47053E+11-4.85897E-04 2.73429E+09-5.30850E-02
 -1       108-1.65459E+08 3.89261E+09 3.25783E+11-2.25652E+08-4.59192E+08-2.08717E+09
 -1       109 8.72753E+08 4.98895E+09 3.28232E+11-1.34754E-03-3.82148E+08-4.79397E-02
 -1       110-1.65459E+08 3.89261E+09 3.25783E+11 2.25652E+08-4.59192E+08 2.08717E+09
 -1       111 1.14450E+09 2.70662E+09 2.96826E+11 1.70237E-03 2.25011E+09-4.73388E-02
 -1       112-9.79269E+08-2.39072E+09 2.69818E+11-5.65409E+07 1.56359E+09-9.28371E+08
 -1       113-6.98992E+08-2.22189E+09 2.70249E+11 5.11086E-03 1.32222E+09-4.98939E-02
 -1       114-9.79269E+08-2.39072E+09 2.69818E+11 5.65409E+07 1.56359E+09 9.28371E+08
 -1       115-9.16868E+07-4.11067E+08 2.42762E+11 7.89635E-04 2.00056E+09-5.18562E-02
 -1       116 7.10950E+07 1.87099E+08 2.16149E+11 4.05389E+06 1.75092E+09-7.49644E+08
 -1       117 1.02485E+08 2.97196E+08 2.16242E+11 4.70063E-03 1.49417E+09-5.99282E-02
 -1       118 7.10950E+07 1.87099E+08 2.16149E+11-4.05389E+06 1.75092E+09 7.49644E+08
 -1       119 1.73758E+07 1.46876E+08 1.88971E+11 2.92343E-03 1.87579E+09-6.77756E-02
 -1       120-6.09230E+07 9.10966E+07 1.61986E+11-3.18353E+07 2.04731E+09-7.35572E+08
 -1       121-9.33853E+07-2.23720E+08 1.61931E+11-7.93415E-03 1.74574E+09-7.40196E-02
 -1       122-6.09230E+07 9.10966E+07 1.61986E+11 3.18353E+07 2.04731E+09 7.35572E+08
 -1       123 1.39235E+08 1.23485E+08 1.35151E+11 1.31059E-02 1.71197E+09-4.31229E-02
 -1       124 3.82890E+08-2.33335E+08 1.07768E+11 5.23800E+08 1.37014E+09-7.60461E+08
 -1       125 2.86507E+08 3.87410E+08 1.07820E+11 3.16248E-02 1.76316E+09-1.59594E-02
 -1       126 3.82890E+08-2.33335E+08 1.07768E+11-5.23800E+08 1.37014E+09 7.60461E+08
 -1       127-4.45019E+08-6.84775E+08 8.07470E+10 9.32693E-03 2.14688E+09-1.46177E-02
 -1       128-1.31984E+09 3.67248E+09 5.42160E+10-5.21232E+08 2.06887E+09-3.60438E+08
 -1       129-1.08891E+09-1.59618E+08 5.46179E+10 6.19650E-04 1.74611E+09-4.04054E-02
 -1       130-1.31984E+09 3.67248E+09 5.42160E+10 5.21232E+08 2.06887E+09 3.60438E+08
 -1       131 4.00439E+09 1.41500E+09 2.73637E+10-8.90350E-03 3.18306E+08-4.04950E-02
 -1       132-1.30053E-02-1.14212E-02-1.35800E-01 8.21898E+09 2.83428E+09 5.88381E-03
 -1       133-9.98271E+09-6.13678E+09 1.87116E+11-3.41884E+09 1.26466E+10 8.82498E+09
 -1       134 9.21202E-03 6.43921E-03-1.20102E-01-2.74447E+09 2.30465E+10-1.81094E-03
 -1       135 9.98271E+09 6.13678E+09-1.87116E+11-3.41884E+09 1.26466E+10-8.82498E+09
 -1       136 2.09093E-03 1.63364E-03-1.07620E-01-2.52531E+09 1.54334E+10 1.28654E-03
 -1       137-2.27637E+09-2.55437E+09 1.59917E+11 2.24301E+09 9.88001E+09 1.33784E+09
 -1       138-2.86044E-03 1.71223E-03-1.02642E-01 2.23740E+09 2.02963E+10-4.42326E-04
 -1       139 2.27637E+09 2.55437E+09-1.59917E+11 2.24301E+09 9.88001E+09-1.33784E+09
 -1       140-2.35868E-03 7.55668E-04-9.02824E-02 4.74607E+08 1.70215E+10 1.12563E-03
 -1       141-5.11965E+08-1.00760E+09 1.34839E+11-3.37747E+08 1.00348E+10 5.02281E+08
 -1       142 1.92702E-03 1.06695E-02-8.32310E-02-3.25649E+08 1.82647E+10 1.47693E-04
 -1       143 5.11965E+08 1.00760E+09-1.34839E+11-3.37747E+08 1.00348E+10-5.02281E+08
 -1       144-1.54251E-03-1.25163E-02-8.87852E-02-1.55406E+08 1.71669E+10-2.86102E-06
 -1       145-1.25564E+08-2.77237E+08 1.07883E+11 1.74194E+08 1.00720E+10 2.98362E+08
 -1       146-7.49767E-04-2.12161E-02-7.68948E-02 1.45632E+08 1.81364E+10 2.50962E-03
 -1       147 1.25564E+08 2.77237E+08-1.07883E+11 1.74194E+08 1.00720E+10-2.98362E+08
 -1       148-1.06058E-02 1.11127E-02-7.04594E-02 5.65904E+06 1.73273E+10 4.08125E-03
 -1       149 3.91161E+07 2.37482E+08 8.10204E+10-2.02313E+08 1.01032E+10 2.61779E+08
 -1       150-2.91187E-02 2.32657E-02-7.39169E-02-9.27337E+07 1.78575E+10-4.06355E-03
 -1       151-3.91161E+07-2.37482E+08-8.10204E+10-2.02313E+08 1.01032E+10-2.61779E+08
 -1       152 6.36348E-03 3.27759E-02-2.64297E-02 1.19692E+08 1.74899E+10 6.65742E-03
 -1       153 4.20824E+08 3.70644E+08 5.42620E+10 4.40781E+08 9.81151E+09 3.79058E+08
 -1       154 4.27005E-02 3.70944E-02 1.52588E-04 2.51918E+08 1.86459E+10 2.29498E-03
 -1       155-4.20824E+08-3.70644E+08-5.42620E+10 4.40781E+08 9.81151E+09-3.79058E+08
 -1       156 1.87839E-02 6.66070E-03 9.04465E-03-4.11176E+08 1.63549E+10-7.07920E-03
 -1       157-3.98771E+08 3.27813E+09 2.63332E+10-2.38029E+09 9.86795E+09 1.52267E+07
 -1       158 7.30515E-04-1.79148E-03 3.93176E-02-1.12128E+09 1.73443E+10 4.07600E-03
 -1       159 3.98771E+08-3.27813E+09-2.63332E+10-2.38029E+09 9.86795E+09-1.52267E+07
 -1       160-1.47009E-03-1.38221E-02 1.73042E-02 2.28245E+09 2.07262E+10-3.42774E-03
 -1       161-3.46575E+10-3.83544E+10-4.15168E+11 3.52979E-03 1.49759E+10 5.07405E-02
 -1       162 2.30977E+10 2.99087E+10-3.74243E+11-7.85935E+08-2.30270E+09-8.00144E+09
 -1       163 1.86031E+10 2.83912E+10-3.81484E+11-1.49155E-03-6.85202E+09 7.26540E-02
 -1       164 2.30977E+10 2.99087E+10-3.74243E+11 7.85935E+08-2.30270E+09 8.00144E+09
 -1       165-4.59342E+07 7.52071E+09-3.47053E+11-9.98020E-04 2.73429E+09 6.52872E-02
 -1       166 1.65459E+08-3.89261E+09-3.25783E+11 2.25652E+08-4.59192E+08-2.08717E+09
 -1       167-8.72753E+08-4.98895E+09-3.28232E+11 2.24745E-03-3.82148E+08 5.84732E-02
 -1       168 1.65459E+08-3.89261E+09-3.25783E+11-2.25652E+08-4.59192E+08 2.08717E+09
 -1       169-1.14450E+09-2.70662E+09-2.96826E+11-1.41543E-03 2.25011E+09 5.58238E-02
 -1       170 9.79269E+08 2.39072E+09-2.69818E+11 5.65409E+07 1.56359E+09-9.28371E+08
 -1       171 6.98992E+08 2.22189E+09-2.70249E+11-6.18719E-03 1.32222E+09 5.51802E-02
 -1       172 9.79269E+08 2.39072E+09-2.69818E+11-5.65409E+07 1.56359E+09 9.28371E+08
 -1       173 9.16868E+07 4.11067E+08-2.42762E+11 1.68499E-03 2.00056E+09 5.99304E-02
 -1       174-7.10950E+07-1.87099E+08-2.16149E+11-4.05389E+06 1.75092E+09-7.49644E+08
 -1       175-1.02485E+08-2.97196E+08-2.16242E+11 4.28523E-03 1.49417E+09 6.20676E-02
 -1       176-7.10950E+07-1.87099E+08-2.16149E+11 4.05389E+06 1.75092E+09 7.49644E+08
 -1       177-1.73758E+07-1.46876E+08-1.88971E+11 5.69750E-03 1.87579E+09 7.36680E-02
 -1       178 6.09230E+07-9.10966E+07-1.61986E+11 3.18353E+07 2.04731E+09-7.35572E+08
 -1       179 9.33853E+07 2.23720E+08-1.61931E+11 7.71895E-03 1.74574E+09 8.57702E-02
 -1       180 6.09230E+07-9.10966E+07-1.61986E+11-3.18353E+07 2.04731E+09 7.35572E+08
 -1       181-1.39235E+08-1.23485E+08-1.35151E+11-8.45790E-03 1.71197E+09 7.22091E-02
 -1       182-3.82890E+08 2.33335E+08-1.07768E+11-5.23800E+08 1.37014E+09-7.60461E+08
 -1       183-2.86507E+08-3.87410E+08-1.07820E+11-1.04856E-02 1.76316E+09 5.11588E-02
 -1       184-3.82890E+08 2.33335E+08-1.07768E+11 5.23800E+08 1.37014E+09 7.60461E+08
 -1       185 4.45019E+08 6.84775E+08-8.07470E+10 6.82497E-03 2.14688E+09 3.94314E-02
 -1       186 1.31984E+09-3.67248E+09-5.42160E+10 5.21232E+08 2.06887E+09-3.60438E+08
 -1       187 1.08891E+09 1.59618E+08-5.46179E+10 7.72810E-03 1.74611E+09 3.83409E-02
 -1       188 1.31984E+09-3.67248E+09-5.42160E+10-5.21232E+08 2.06887E+09 3.60438E+08
 -1       189-4.00439E+09-1.41500E+09-2.73637E+10-1.09301E-02 3.18306E+08 2.60518E-02
 -1       190 1.23549E-02 1.06869E-02 1.38779E-01-8.21898E+09 2.83428E+09 5.40286E-03
 -1       191 9.98271E+09 6.13678E+09-1.87116E+11 3.41884E+09 1.26466E+10 8.82498E+09
 -1       192-1.13397E-02-9.93538E-03 1.25540E-01 2.74447E+09 2.30465E+10-2.80131E-03
 -1       193-9.98271E+09-6.13678E+09 1.87116E+11 3.41884E+09 1.26466E+10-8.82498E+09
 -1       194-1.09410E-03 3.19958E-03 1.13138E-01 2.52531E+09 1.54334E+10-7.71731E-04
 -1       195 2.27637E+09 2.55437E+09-1.59917E+11-2.24301E+09 9.88001E+09 1.33784E+09
 -1       196 8.44902E-03 1.11756E-02 1.07491E-01-2.23740E+09 2.02963E+10-1.51247E-03
 -1       197-2.27637E+09-2.55437E+09 1.59917E+11-2.24301E+09 9.88001E+09-1.33784E+09
 -1       198 1.72412E-03 8.67391E-03 9.74693E-02-4.74607E+08 1.70215E+10 2.83656E-03
 -1       199 5.11965E+08 1.00760E+09-1.34839E+11 3.37747E+08 1.00348E+10 5.02281E+08
 -1       200-8.69352E-03 5.58531E-03 8.49919E-02 3.25649E+08 1.82647E+10 4.16987E-04
 -1       201-5.11965E+08-1.00760E+09 1.34839E+11 3.37747E+08 1.00348E+10-5.02281E+08
 -1       202 3.81827E-04 5.54252E-03 8.02083E-02 1.55406E+08 1.71669E+10-1.27943E-03
 -1       203 1.25564E+08 2.77237E+08-1.07883E+11-1.74194E+08 1.00720E+10 2.98362E+08
 -1       204 1.37069E-02 1.72859E-02 7.04401E-02-1.45632E+08 1.81364E+10 6.58773E-04
 -1       205-1.25564E+08-2.77237E+08 1.07883E+11-1.74194E+08 1.00720E+10-2.98362E+08
 -1       206-1.40944E-03-1.50153E-02 6.87292E-02-5.65904E+06 1.73273E+10-4.52235E-04
 -1       207-3.91161E+07-2.37482E+08-8.10204E+10 2.02313E+08 1.01032E+10 2.61779E+08
 -1       208-1.13223E-02-3.23048E-02 6.60179E-02 9.27337E+07 1.78575E+10-4.34789E-03
 -1       209 3.91161E+07 2.37482E+08 8.10204E+10 2.02313E+08 1.01032E+10-2.61779E+08
 -1       210-5.02887E-03-3.09077E-02 2.46418E-02-1.19692E+08 1.74899E+10 8.22973E-03
 -1       211-4.20824E+08-3.70644E+08-5.42620E+10-4.40781E+08 9.81151E+09 3.79058E+08
 -1       212-5.38558E-03-4.88710E-02 2.99525E-03-2.51918E+08 1.86459E+10 2.31612E-03
 -1       213 4.20824E+08 3.70644E+08 5.42620E+10-4.40781E+08 9.81151E+09-3.79058E+08
 -1       214 5.88930E-03 4.54903E-03 6.92630E-03 4.11176E+08 1.63549E+10-1.32495E-02
 -1       215 3.98771E+08-3.27813E+09-2.63332E+10 2.38029E+09 9.86795E+09 1.52267E+07
 -1       216 1.69216E-02 4.33960E-02-2.20342E-03 1.12128E+09 1.73443E+10 8.77380E-04
 -1       217-3.98771E+08 3.27813E+09 2.63332E+10 2.38029E+09 9.86795E+09-1.52267E+07
 -1       218-8.15535E-03-6.16097E-03-7.21073E-03-2.28245E+09 2.07262E+10 1.82796E-03
 -1       219 1.62125E-05-2.08855E-04 2.29931E-03 3.69072E-04 1.54869E+10 6.24989E-03
 -1       220-5.29773E+09-4.24499E+09 1.94618E+11 3.45469E-04 5.35270E+09-2.07105E-02
 -1       221-2.59256E-03-3.63541E-03 6.51264E-02-5.61364E+08 2.03020E+10 2.29967E-03
 -1       222-1.03307E-03-1.11008E-03 1.86992E-03 7.94411E-04 1.75574E+10 6.94779E-03
 -1       223 4.96387E-04 7.78198E-04-6.05373E-02 5.61364E+08 2.03020E+10 2.34200E-03
 -1       224 5.29773E+09 4.24499E+09-1.94618E+11-3.45230E-04 5.35270E+09 3.73709E-02
 -1       225 6.74725E-04-1.81723E-03 1.45125E-03 1.28031E-04 1.34603E+10 5.00249E-03
 -1       226-1.42721E+09-2.00196E+09 1.62280E+11-2.09862E-03 8.11927E+09-1.89521E-02
 -1       227 4.63280E-03 2.02414E-03 5.29213E-02-2.20189E+08 1.84585E+10 2.20074E-03
 -1       228 2.37259E-03-4.15683E-03-3.46422E-04-1.35964E-03 1.66207E+10 6.35749E-03
 -1       229 5.34438E-04 2.62737E-04-5.08435E-02 2.20189E+08 1.84585E+10 3.17936E-03
 -1       230 1.42721E+09 2.00196E+09-1.62280E+11 1.18887E-03 8.11927E+09 3.05763E-02
 -1       231-1.13741E-03-1.19298E-02-1.67394E-03 7.46876E-04 1.34137E+10 4.88704E-03
 -1       232-1.62969E+08-6.65648E+08 1.35326E+11 6.17205E-03 7.96447E+09-2.19586E-02
 -1       233-5.31387E-03-3.71861E-03 4.27248E-02-5.92139E+07 1.64357E+10 1.89597E-03
 -1       234-2.83149E-03-1.49055E-02-6.47068E-04 3.50234E-03 1.46067E+10 2.77304E-03
 -1       235-9.00984E-04-3.05951E-03-4.24914E-02 5.92139E+07 1.64357E+10 1.15941E-03
 -1       236 1.62969E+08 6.65648E+08-1.35326E+11-3.20785E-03 7.96447E+09 2.73748E-02
 -1       237 3.65359E-03 7.58809E-03 1.25742E-03-7.29948E-04 1.37343E+10 1.15735E-03
 -1       238-1.16552E+08-2.20527E+08 1.07955E+11 5.58563E-04 7.92723E+09-2.52243E-02
 -1       239 1.35790E-02 2.23118E-02 3.48419E-02-1.91729E+07 1.62484E+10 4.63165E-03
 -1       240 6.84498E-03 2.91835E-02-1.73438E-03-2.76428E-03 1.43603E+10 5.14747E-03
 -1       241-2.55391E-04 4.90654E-03-3.98036E-02 1.91729E+07 1.62484E+10 2.10004E-03
 -1       242 1.16552E+08 2.20527E+08-1.07955E+11 1.17008E-03 7.92723E+09 3.14415E-02
 -1       243 2.63688E-03-1.07503E-02-3.40140E-03 2.75097E-03 1.38828E+10 3.23082E-03
 -1       244 1.05754E+07-8.25984E+07 8.09838E+10-2.13168E-03 7.89610E+09-3.12071E-02
 -1       245-1.05239E-02-3.68403E-02 3.08956E-02 4.88876E+07 1.59520E+10 8.94740E-05
 -1       246-2.72500E-03-5.60316E-02-5.86474E-03 5.18748E-03 1.40465E+10 5.85907E-03
 -1       247-1.24216E-02-2.37110E-02-4.07099E-02-4.88876E+07 1.59520E+10 1.56388E-03
 -1       248-1.05754E+07 8.25984E+07-8.09838E+10 7.21157E-03 7.89610E+09 4.29415E-02
 -1       249-2.64256E-03-2.09482E-02-1.05029E-02-2.77140E-03 1.39389E+10 1.57182E-02
 -1       250 4.03302E+07 3.94829E+08 5.39635E+10 1.18368E-02 8.18777E+09-2.14544E-03
 -1       251-5.80591E-03-1.67251E-02-1.84858E-03-2.17646E+08 1.66291E+10 4.00398E-03
 -1       252 4.38986E-03 2.14726E-02-2.51383E-03-6.62862E-03 1.46124E+10 1.08095E-02
 -1       253 2.88532E-02 3.23092E-02 9.08673E-04 2.17646E+08 1.66291E+10 9.11105E-03
 -1       254-4.03302E+07-3.94829E+08-5.39635E+10-7.89577E-03 8.18777E+09 3.05546E-02
 -1       255 2.64286E-03-2.70169E-02-1.66649E-03-9.09378E-03 1.34015E+10-3.57623E-03
 -1       256 1.52003E+08-2.00078E+08 2.74474E+10 3.75837E-03 8.13133E+09-1.62671E-02
 -1       257 1.55964E-02-4.50087E-03 2.95356E-03 1.13756E+09 1.59304E+10 4.84735E-03
 -1       258 3.10344E-03-6.99906E-02-4.73127E-04-4.09454E-03 1.45166E+10 4.24735E-03
 -1       259-3.66688E-03-4.46875E-02 1.51304E-02-1.13756E+09 1.59304E+10 1.87671E-03
 -1       260-1.52003E+08 2.00078E+08-2.74474E+10-3.67901E-03 8.13133E+09 1.94822E-02
 -1       261-1.95925E-02-3.76832E-02-6.72860E-03-4.66347E-03 1.26836E+10 3.47838E-03
 -3
 9999
